999,88
654,491
744,469
633,371
630,731
563,388
644,520
1045,670
847,-107
227,637
822,212
464,-21
626,577
580,93
646,358
1155,331
624,424
918,443
912,-48
607,634
910,721
771,406
464,833
1125,336
792,748
512,237
773,691
994,507
651,406
918,443
